data/solutions/recovery/degenerate/moderate/flexible/degenerate_moderate_instance1/23.sol
Elapsed time: 0.09
Upper bound: 237521.0
Planning weighted value: 2034292.0
C[0]=237521.0
C[1]=237154.0
C[2]=236461.0
y[0]=1
y[1]=0
y[2]=0
y[3]=1
y[4]=0
y[5]=0
y[6]=2
y[7]=0
y[8]=1
y[9]=1
y[10]=2
y[11]=0
y[12]=0
y[13]=2
y[14]=0
y[15]=2
y[16]=1
y[17]=1
y[18]=0
y[19]=2
y[20]=2
y[21]=2
