data/solutions/recovery/degenerate/moderate/flexible/degenerate_moderate_instance1/23.log

Log started (V12.6.3.0) Sat Apr 21 11:01:58 2018

New value for default parallel thread count: 1

Problem '/tmp/tmp8eaZSc.pyomo.lp' read.
Read time = 0.00 sec. (0.02 ticks)

Problem name         : /tmp/tmp8eaZSc.pyomo.lp
Objective sense      : Minimize
Variables            :      71  [Nneg: 1,  Binary: 66,  General Integer: 4]
Objective nonzeros   :       1
Linear constraints   :      51  [Less: 25,  Equal: 26]
  Nonzeros           :    1019
  RHS nonzeros       :      45

Variables            : Min LB: 0.000000         Max UB: 1.000000       
Objective nonzeros   : Min   : 1.000000         Max   : 1.000000       
Linear constraints   :
  Nonzeros           : Min   : 1.000000         Max   : 93707.00       
  RHS nonzeros       : Min   : 1.000000         Max   : 3.000000       
Tried aggregator 2 times.
MIP Presolve eliminated 22 rows and 3 columns.
Aggregator did 4 substitutions.
Reduced MIP has 25 rows, 64 columns, and 167 nonzeros.
Reduced MIP has 63 binaries, 1 generals, 0 SOSs, and 0 indicators.
Presolve time = 0.00 sec. (0.42 ticks)
Found incumbent of value 711136.000000 after 0.00 sec. (0.63 ticks)
Probing time = 0.00 sec. (0.04 ticks)
Cover probing fixed 0 vars, tightened 6 bounds.
Tried aggregator 1 time.
Reduced MIP has 25 rows, 64 columns, and 167 nonzeros.
Reduced MIP has 63 binaries, 1 generals, 0 SOSs, and 0 indicators.
Presolve time = 0.00 sec. (0.10 ticks)
Probing time = 0.00 sec. (0.03 ticks)
Clique table members: 21.
MIP emphasis: balance optimality and feasibility.
MIP search method: dynamic search.
Parallel mode: none, using 1 thread.
Root relaxation solution time = 0.00 sec. (0.06 ticks)

        Nodes                                         Cuts/
   Node  Left     Objective  IInf  Best Integer    Best Bound    ItCnt     Gap

*     0+    0                       711136.0000    93707.0000            86.82%
      0     0   237045.3333     4   711136.0000   237045.3333        5   66.67%
*     0+    0                       276518.0000   237045.3333            14.27%
      0     0   237046.0000     6   276518.0000      Fract: 3       18   14.27%
*     0+    0                       238685.0000   237046.0000             0.69%
      0     0   237046.0000    10   238685.0000    MIRcuts: 4       25    0.69%
*     0+    0                       238563.0000   237046.0000             0.64%
      0     2   237046.0000     4   238563.0000   237046.0000       25    0.64%
Elapsed time = 0.01 sec. (2.78 ticks, tree = 0.01 MB, solutions = 3)
*    18     4      integral     0   238542.0000   237046.0000       58    0.63%
*    59    16      integral     0   238519.0000   237046.0000      221    0.62%
*   350+   24                       237917.0000   237046.0000             0.37%
*   540+   61                       237578.0000   237046.0000             0.22%
*   698    21      integral     0   237521.0000   237046.0000     2686    0.20%

Cover cuts applied:  43

Root node processing (before b&c):
  Real time             =    0.01 sec. (2.78 ticks)
Sequential b&c:
  Real time             =    0.04 sec. (28.11 ticks)
                          ------------
Total (root+branch&cut) =    0.04 sec. (30.89 ticks)

Solution pool: 8 solutions saved.

MIP - Integer optimal solution:  Objective =  2.3752100000e+05
Solution time =    0.04 sec.  Iterations = 2912  Nodes = 764
Deterministic time = 30.89 ticks  (694.05 ticks/sec)


Incumbent solution written to file '/tmp/tmpMVUie2.cplex.sol'.
